results/x-long/X-n167-k10.vrp_seed-3.out
20557	1132
