results/x-long/X-n167-k10.vrp_seed-3.vrp.sol
Route #1: 124 87 42 54 23 139 154 132 60 113 71 143 130 3 79 121 152
Route #2: 67 89 7 25 93 118 47 126 127 61 58 56 155 69 83 22 73 137
Route #3: 99 63 103 86 5
Route #4: 35 26 165 78 41 74 33 106 166 94 90 161 91 147 117 43 66 125
Route #5: 6 157 9 48 68 162 62 123 128 14 96 17 159 15 140 119 134
Route #6: 138 20 49 64 107 104 12 57 77 13 1 122 111 88 163 145 129 8
Route #7: 46 52 85 156 115 97 148 116 153 4 149 131 151 38 55 92 30 44
Route #8: 80 105 36 110 65 34 164 81 45 98 150 135 100 102 108 27 101 18 144
Route #9: 109 16 28 29 2 114 136 37 84 146 51 10 72 32 53 59 158
Route #10: 21 160 75 95 112 120 82 11 39 141 70 133 24 31 40 50 19 142 76
Cost 20557.000000